NAME: cuum490.tsp
TYPE: TSP
COMMENT: User-generated TSP file
DIMENSION: 490
EDGE_WEIGHT_TYPE: EUC_2D
NODE_COORD_SECTION
1 434.0 478.0
2 337.0 294.0
3 65.0 161.0
4 8.0 243.0
5 68.0 334.0
6 91.0 49.0
7 2.0 418.0
8 133.0 159.0
9 287.0 469.0
10 351.0 51.0
11 212.0 339.0
12 77.0 363.0
13 402.0 8.0
14 128.0 388.0
15 232.0 276.0
16 195.0 148.0
17 296.0 3.0
18 317.0 404.0
19 140.0 397.0
20 146.0 248.0
21 314.0 289.0
22 265.0 298.0
23 44.0 57.0
24 17.0 76.0
25 258.0 36.0
26 259.0 136.0
27 342.0 18.0
28 337.0 339.0
29 376.0 333.0
30 422.0 273.0
31 247.0 71.0
32 448.0 197.0
33 481.0 202.0
34 245.0 331.0
35 282.0 1.0
36 40.0 38.0
37 164.0 380.0
38 46.0 431.0
39 162.0 337.0
40 214.0 273.0
41 216.0 479.0
42 32.0 299.0
43 9.0 178.0
44 181.0 196.0
45 100.0 304.0
46 469.0 323.0
47 289.0 324.0
48 71.0 245.0
49 437.0 349.0
50 284.0 295.0
51 348.0 478.0
52 359.0 142.0
53 415.0 66.0
54 161.0 1.0
55 445.0 302.0
56 449.0 289.0
57 148.0 163.0
58 2.0 399.0
59 6.0 310.0
60 176.0 98.0
61 88.0 302.0
62 230.0 177.0
63 27.0 447.0
64 327.0 85.0
65 47.0 329.0
66 181.0 457.0
67 68.0 486.0
68 221.0 192.0
69 474.0 51.0
70 140.0 206.0
71 167.0 364.0
72 398.0 242.0
73 139.0 79.0
74 5.0 283.0
75 197.0 57.0
76 151.0 351.0
77 74.0 204.0
78 311.0 361.0
79 62.0 47.0
80 260.0 61.0
81 32.0 460.0
82 478.0 90.0
83 322.0 9.0
84 39.0 339.0
85 297.0 57.0
86 171.0 289.0
87 308.0 148.0
88 235.0 58.0
89 231.0 97.0
90 425.0 47.0
91 116.0 312.0
92 58.0 316.0
93 417.0 84.0
94 469.0 2.0
95 189.0 123.0
96 225.0 428.0
97 14.0 204.0
98 78.0 6.0
99 490.0 125.0
100 396.0 143.0
101 167.0 104.0
102 234.0 199.0
103 12.0 21.0
104 122.0 87.0
105 303.0 326.0
106 306.0 270.0
107 375.0 101.0
108 36.0 404.0
109 438.0 211.0
110 448.0 111.0
111 314.0 46.0
112 258.0 79.0
113 39.0 444.0
114 397.0 146.0
115 378.0 220.0
116 191.0 112.0
117 156.0 209.0
118 425.0 172.0
119 478.0 4.0
120 60.0 108.0
121 106.0 240.0
122 401.0 330.0
123 405.0 180.0
124 305.0 359.0
125 98.0 415.0
126 228.0 430.0
127 395.0 414.0
128 88.0 42.0
129 188.0 468.0
130 283.0 145.0
131 164.0 391.0
132 2.0 22.0
133 73.0 5.0
134 102.0 336.0
135 76.0 362.0
136 296.0 483.0
137 121.0 311.0
138 225.0 319.0
139 63.0 107.0
140 353.0 274.0
141 208.0 150.0
142 127.0 423.0
143 490.0 475.0
144 335.0 151.0
145 287.0 231.0
146 289.0 365.0
147 198.0 475.0
148 12.0 41.0
149 9.0 83.0
150 405.0 213.0
151 127.0 194.0
152 188.0 52.0
153 154.0 332.0
154 244.0 37.0
155 325.0 475.0
156 218.0 483.0
157 166.0 11.0
158 238.0 398.0
159 377.0 320.0
160 459.0 203.0
161 437.0 60.0
162 389.0 258.0
163 315.0 133.0
164 238.0 233.0
165 416.0 13.0
166 166.0 379.0
167 370.0 92.0
168 142.0 438.0
169 137.0 353.0
170 484.0 442.0
171 313.0 66.0
172 52.0 365.0
173 55.0 435.0
174 69.0 240.0
175 414.0 218.0
176 417.0 189.0
177 287.0 308.0
178 470.0 240.0
179 138.0 116.0
180 469.0 117.0
181 189.0 198.0
182 415.0 429.0
183 450.0 30.0
184 118.0 132.0
185 308.0 252.0
186 349.0 115.0
187 380.0 273.0
188 170.0 350.0
189 487.0 318.0
190 399.0 52.0
191 413.0 92.0
192 10.0 260.0
193 241.0 206.0
194 148.0 424.0
195 20.0 254.0
196 93.0 274.0
197 261.0 451.0
198 392.0 3.0
199 116.0 401.0
200 259.0 102.0
201 104.0 216.0
202 375.0 189.0
203 221.0 337.0
204 103.0 158.0
205 53.0 143.0
206 134.0 90.0
207 129.0 107.0
208 432.0 195.0
209 74.0 70.0
210 114.0 206.0
211 217.0 220.0
212 122.0 28.0
213 426.0 142.0
214 64.0 6.0
215 290.0 109.0
216 277.0 483.0
217 219.0 86.0
218 462.0 344.0
219 128.0 49.0
220 353.0 266.0
221 127.0 108.0
222 320.0 95.0
223 112.0 87.0
224 387.0 454.0
225 303.0 474.0
226 256.0 105.0
227 404.0 398.0
228 281.0 66.0
229 461.0 98.0
230 452.0 292.0
231 364.0 429.0
232 175.0 76.0
233 147.0 71.0
234 17.0 267.0
235 221.0 70.0
236 485.0 428.0
237 56.0 347.0
238 359.0 331.0
239 466.0 412.0
240 138.0 461.0
241 175.0 465.0
242 119.0 73.0
243 40.0 256.0
244 152.0 246.0
245 164.0 407.0
246 91.0 44.0
247 162.0 57.0
248 439.0 259.0
249 150.0 135.0
250 213.0 185.0
251 243.0 133.0
252 38.0 252.0
253 255.0 66.0
254 307.0 260.0
255 31.0 2.0
256 278.0 126.0
257 169.0 391.0
258 89.0 272.0
259 352.0 200.0
260 369.0 432.0
261 264.0 382.0
262 66.0 198.0
263 432.0 484.0
264 240.0 128.0
265 169.0 393.0
266 173.0 340.0
267 110.0 344.0
268 485.0 117.0
269 30.0 39.0
270 78.0 377.0
271 223.0 460.0
272 159.0 474.0
273 170.0 258.0
274 161.0 352.0
275 360.0 263.0
276 402.0 466.0
277 279.0 251.0
278 259.0 343.0
279 249.0 384.0
280 6.0 151.0
281 382.0 77.0
282 125.0 355.0
283 420.0 53.0
284 44.0 91.0
285 88.0 193.0
286 284.0 318.0
287 130.0 362.0
288 454.0 263.0
289 379.0 289.0
290 120.0 414.0
291 240.0 71.0
292 114.0 369.0
293 48.0 340.0
294 277.0 339.0
295 303.0 338.0
296 406.0 64.0
297 136.0 421.0
298 152.0 41.0
299 298.0 107.0
300 483.0 25.0
301 147.0 437.0
302 98.0 394.0
303 278.0 147.0
304 132.0 173.0
305 204.0 427.0
306 160.0 81.0
307 142.0 82.0
308 52.0 111.0
309 233.0 218.0
310 372.0 313.0
311 222.0 328.0
312 336.0 384.0
313 329.0 415.0
314 260.0 412.0
315 214.0 316.0
316 161.0 198.0
317 83.0 71.0
318 390.0 316.0
319 91.0 454.0
320 355.0 446.0
321 143.0 90.0
322 319.0 458.0
323 446.0 186.0
324 408.0 79.0
325 107.0 309.0
326 370.0 380.0
327 402.0 244.0
328 345.0 398.0
329 375.0 347.0
330 162.0 3.0
331 57.0 336.0
332 411.0 261.0
333 177.0 383.0
334 405.0 161.0
335 47.0 326.0
336 268.0 282.0
337 166.0 326.0
338 13.0 27.0
339 423.0 78.0
340 358.0 261.0
341 191.0 387.0
342 342.0 339.0
343 236.0 489.0
344 382.0 19.0
345 102.0 138.0
346 226.0 301.0
347 249.0 337.0
348 180.0 253.0
349 98.0 257.0
350 99.0 22.0
351 227.0 218.0
352 488.0 55.0
353 447.0 406.0
354 257.0 100.0
355 110.0 248.0
356 175.0 484.0
357 250.0 204.0
358 34.0 100.0
359 183.0 184.0
360 103.0 295.0
361 373.0 12.0
362 84.0 95.0
363 466.0 27.0
364 60.0 10.0
365 294.0 2.0
366 121.0 193.0
367 178.0 46.0
368 457.0 341.0
369 275.0 206.0
370 336.0 417.0
371 291.0 238.0
372 384.0 11.0
373 251.0 16.0
374 265.0 434.0
375 294.0 381.0
376 422.0 346.0
377 250.0 203.0
378 84.0 359.0
379 476.0 59.0
380 430.0 301.0
381 385.0 57.0
382 321.0 385.0
383 273.0 278.0
384 472.0 274.0
385 296.0 372.0
386 60.0 415.0
387 421.0 22.0
388 477.0 223.0
389 27.0 401.0
390 335.0 134.0
391 325.0 263.0
392 317.0 418.0
393 70.0 317.0
394 423.0 260.0
395 453.0 22.0
396 25.0 422.0
397 34.0 246.0
398 315.0 442.0
399 489.0 136.0
400 24.0 405.0
401 104.0 38.0
402 215.0 117.0
403 146.0 284.0
404 1.0 382.0
405 194.0 7.0
406 352.0 394.0
407 354.0 263.0
408 212.0 291.0
409 386.0 225.0
410 291.0 422.0
411 446.0 41.0
412 249.0 382.0
413 230.0 93.0
414 267.0 12.0
415 38.0 376.0
416 28.0 18.0
417 120.0 357.0
418 116.0 136.0
419 145.0 254.0
420 445.0 115.0
421 343.0 140.0
422 398.0 319.0
423 432.0 102.0
424 38.0 254.0
425 474.0 410.0
426 212.0 83.0
427 60.0 391.0
428 408.0 316.0
429 166.0 107.0
430 476.0 335.0
431 350.0 274.0
432 30.0 164.0
433 320.0 89.0
434 128.0 341.0
435 390.0 269.0
436 64.0 261.0
437 219.0 120.0
438 316.0 33.0
439 356.0 123.0
440 345.0 174.0
441 267.0 188.0
442 206.0 143.0
443 50.0 44.0
444 238.0 476.0
445 26.0 143.0
446 470.0 8.0
447 388.0 483.0
448 80.0 131.0
449 250.0 15.0
450 320.0 67.0
451 274.0 106.0
452 172.0 434.0
453 479.0 283.0
454 323.0 488.0
455 445.0 453.0
456 284.0 18.0
457 214.0 272.0
458 472.0 106.0
459 282.0 458.0
460 346.0 76.0
461 186.0 389.0
462 311.0 179.0
463 297.0 403.0
464 307.0 122.0
465 98.0 375.0
466 384.0 111.0
467 94.0 379.0
468 49.0 268.0
469 277.0 54.0
470 6.0 428.0
471 327.0 247.0
472 146.0 70.0
473 260.0 302.0
474 156.0 121.0
475 347.0 239.0
476 298.0 20.0
477 459.0 129.0
478 163.0 8.0
479 35.0 409.0
480 210.0 185.0
481 334.0 302.0
482 133.0 197.0
483 153.0 203.0
484 434.0 248.0
485 148.0 246.0
486 106.0 304.0
487 56.0 83.0
488 396.0 212.0
489 338.0 81.0
490 23.0 158.0
EOF





